
--- Job nrg_run_2_8x2.gms Start 04/22/13 19:21:36 WEX-WEI 23.7.3 x86_64/MS Windows     
GAMS Rev 237  Copyright (C) 1987-2011 GAMS Development. All rights reserved
Licensee: Gary Goldstein                                 G010614:2121CA-WIN
          Decision Ware, Inc.                                        DC2807
--- Starting compilation
--- nrg_run_2_8x2.gms(3) 2 Mb
--- .params_2_8x2.gms(79) 3 Mb
--- nrg_run_2_8x2.gms(4) 3 Mb
--- .nrg_model_2.gms(106) 3 Mb
--- nrg_run_2_8x2.gms(14) 3 Mb
--- Starting execution: elapsed 0:00:00.004
--- nrg_run_2_8x2.gms(179) 4 Mb
--- Generating MIP model min_wqt
--- nrg_run_2_8x2.gms(180) 4 Mb
---   1,135 rows  442 columns  2,784 non-zeroes
---   420 discrete-columns
***
***   200 Integer +INF Bounds have been reset to 100
***
--- Executing CPLEX: elapsed 0:00:00.020

IBM ILOG CPLEX   Jul 14, 2011 23.7.3 WEX 27723.27726 WEI x86_64/MS Windows
--- GAMS/Cplex licensed for continuous and discrete problems.
Cplex 12.3.0.0

Reading data...
Starting Cplex...
Tried aggregator 2 times.
MIP Presolve eliminated 757 rows and 147 columns.
MIP Presolve modified 84 coefficients.
Aggregator did 130 substitutions.
Reduced MIP has 248 rows, 165 columns, and 924 nonzeros.
Reduced MIP has 148 binaries, 6 generals, 0 SOSs, and 0 indicators.
Probing time =    0.00 sec.
Tried aggregator 1 time.
Presolve time =    0.02 sec.
Found feasible solution after 0.02 sec.  Objective = 3.4658e+007
Probing time =    0.00 sec.
Clique table members: 1367.
MIP emphasis: balance optimality and feasibility.
MIP search method: dynamic search.
Parallel mode: none, using 1 thread.
Tried aggregator 1 time.
No LP presolve or aggregator reductions.
Presolve time =    0.00 sec.
Initializing dual steep norms . . .

Iteration log . . .
Iteration:     1   Dual objective     =      11709297.854700
Root relaxation solution time =    0.03 sec.

        Nodes                                         Cuts/
   Node  Left     Objective  IInf  Best Integer    Best Bound    ItCnt     Gap

*     0+    0                      3.46583e+007                     18     --- 
      0     0  1.17093e+007    12  3.46583e+007  1.17093e+007       18   66.22%
*     0+    0                      2.95811e+007  1.17093e+007       18   60.42%
      0     0  1.17093e+007     8  2.95811e+007       Cuts: 3       25   60.42%
*     0+    0                      2.88287e+007  1.17093e+007       25   59.38%
      0     0  1.17093e+007    21  2.88287e+007      Cuts: 10       37   59.38%
*     0+    0                      2.07480e+007  1.17093e+007       37   43.56%
      0     0  1.17093e+007     6  2.07480e+007   Impl Bds: 1       39   43.56%
*     0+    0                      1.55359e+007  1.17093e+007       39   24.63%
      0     0  1.17093e+007     8  1.55359e+007       Cuts: 5       41   24.63%
*     0+    0                      1.49412e+007  1.17093e+007       41   21.63%
      0     2  1.17093e+007     8  1.49412e+007  1.17093e+007       41   21.63%
Elapsed real time =   0.14 sec. (tree size =  0.00 MB, solutions = 6)
*    10+    8                      1.17905e+007  1.17093e+007       80    0.69%

Implied bound cuts applied:  6
Flow cuts applied:  2
Gomory fractional cuts applied:  1

Root node processing (before b&c):
  Real time             =    0.12
Sequential b&c:
  Real time             =    0.00
                          -------
Total (root+branch&cut) =    0.12 sec.
MIP status(102): integer optimal, tolerance
Fixing integer variables, and solving final LP...
Tried aggregator 1 time.
LP Presolve eliminated 1025 rows and 421 columns.
Aggregator did 10 substitutions.
Reduced LP has 100 rows, 11 columns, and 200 nonzeros.
Presolve time =    0.00 sec.

Iteration log . . .
Iteration:     1   Dual objective     =      11790479.009100
Fixed MIP status(1): optimal

Solution satisfies tolerances.

MIP Solution:     11790479.009100    (80 iterations, 10 nodes)
Final Solve:      11790479.009100    (5 iterations)

Best possible:    11709297.854700
Absolute gap:        81181.154400
Relative gap:            0.006885

--- Restarting execution
--- nrg_run_2_8x2.gms(180) 2 Mb
--- Reading solution for model min_wqt
--- Executing after solve: elapsed 0:00:00.649
--- nrg_run_2_8x2.gms(199) 3 Mb
--- Putfile salida_starting_time C:\Users\Santiago\Desktop\gams-opi\m2_nrg_stime_8x2.txt
--- Putfile salida_assignment C:\Users\Santiago\Desktop\gams-opi\m2_nrg_assign_8x2.txt
*** Status: Normal completion
--- Job nrg_run_2_8x2.gms Stop 04/22/13 19:21:36 elapsed 0:00:00.651
